
NODE_COORD_SECTION
  A     8          20
  B     12         30
  C     5          18
  D     10         25
  E     3          15
  F     8          22
  G     15         35
  H     6          20
  I     12         28
  J     10         32
  K     8          22
  L     6          18
  M     3          12
  N     10         28
  O     15         34
  P     4          16
  Q     7          24
  R     11         30
  S     5          20
  T     13         33
EOF
